1150
100
52 100
45 104
51 105
47 99
48 95
52 99
50 98
50 96
47 98
49 99
53 101
51 101
51 96
50 101
52 102
48 96
53 97
53 103
52 99
48 95
49 100
51 106
50 97
46 96
51 101
51 98
50 97
52 98
49 103
53 102
48 100
55 105
49 101
52 102
47 96
51 99
52 94
52 108
50 96
49 97
51 102
49 100
52 96
50 104
51 98
49 95
50 94
48 99
50 95
53 97
50 101
47 101
47 94
45 92
45 95
52 97
49 99
47 98
49 101
51 103
51 99
52 100
47 104
56 101
49 101
50 102
50 94
51 100
54 95
46 98
52 99
50 101
49 107
49 99
46 96
50 98
47 99
51 98
49 99
48 99
51 98
50 100
49 101
52 97
53 101
51 105
46 97
48 99
53 96
45 102
47 99
51 108
48 101
50 99
49 108
45 98
44 98
52 97
47 101
46 101